17 12 
7 3
3 3
1 7
3 6
5 3
1 7
7 5
4 5
7 7
9 6
9 7
5 2
7 6
5 9
9 6
9 1
1 9
13 16 113
15 16 323
13 10 367
13 16 382
15 12 156
11 18 264
10 19 354
13 18 290
15 19 171
13 10 174
11 11 300
14 18 234
